GLPSOL: GLPK LP/MIP Solver, v4.55
Parameter(s) specified in the command line:
 -m tmp.mod
Reading model section from tmp.mod...
Reading data section from tmp.mod...
3320 lines were read
Generating obj...
Generating kirhoff...
Generating init_charge...
Generating batt_size...
Model has been successfully generated
GLPK Simplex Optimizer, v4.55
7033 rows, 5968 columns, 12546 non-zeros
Preprocessing...
3667 rows, 5859 columns, 12347 non-zeros
Scaling...
 A: min|aij| =  1.000e+00  max|aij| =  1.000e+00  ratio =  1.000e+00
Problem data seem to be well scaled
Constructing initial basis...
Size of triangular part is 2678
      0: obj =   0.000000000e+00  infeas =  2.839e+03 (989)
    500: obj =   2.210000000e+02  infeas =  1.500e+01 (934)
*   511: obj =   2.210000000e+02  infeas =  0.000e+00 (933)
*   726: obj =   8.000000000e+01  infeas =  0.000e+00 (927)
OPTIMAL LP SOLUTION FOUND
Time used:   0.2 secs
Memory used: 13.4 Mb (14057150 bytes)
#OUTPUT:
80
-16 0 -9 1 -15 0 0 -48 0 0 0 -1 -5 0 0 -7 0 -1 0 0 -11 -2 0 0 0 0 0 0 -5 0 0 0 0 3 0 0 0 -1 0 0 -11 0 0 0 0 0 0 0 0 0 -48 0 0 0 0 0 0 0 0 0 0 0 0 0 0 0 0 0 0 6 0 0 0 0 0 0 0 0 15 0 0 0 0 -48 0 3 0 0 0 0 0 0 0 6 0 0 0 0 0 0 0 0 0 0 0 0 0 0 0 -15 0 0 48 -9 6 0 0 0 0 0 0 0 0 0 0 0 0 0 0 0 0 0 0 0 0 0 0 0 0 0 0 0 0 0 0 0 0 0 0 0 0 0 0 0 0 0 0 0 0 0 0 0 0 0 0 0 0 0 0 0 0 0 0 0 0 0 0 0 0 0 0 0 0 0 0 0 0 0 0 0 0 0 0 0 0 0 0 0 0 0 0 0 0 0 0 0 0 0 0 0 0 0 0 0 0 0 0 0 0 0 0 0 0 0 0 0 0 0 0 0 0 0 0 0 0 0 0 0 0 0 0 0 0 0 0 0 0 0 0 0 
-4 -6 -1 0 0 0 0 -3 0 0 0 0 0 0 0 -3 0 0 0 0 0 -2 0 0 1 0 -7 0 -1 0 0 0 0 0 0 0 0 0 0 0 0 0 0 0 0 0 0 0 0 0 0 0 0 0 0 0 0 0 0 -3 0 0 0 0 0 0 0 0 0 0 0 0 0 0 0 0 0 0 0 0 0 0 3 0 0 0 3 0 1 0 0 1 10 0 0 0 0 0 0 0 0 0 0 0 0 0 0 0 0 0 0 0 0 0 0 -3 -1 0 0 0 0 0 0 0 0 0 0 0 0 0 0 0 0 0 0 0 0 0 0 0 0 0 0 0 0 0 0 0 0 0 0 0 0 0 0 0 0 0 0 0 0 0 0 0 0 0 0 0 0 0 0 0 0 0 0 0 0 0 0 0 0 0 0 0 0 0 0 0 0 0 0 0 0 0 0 0 0 0 0 0 0 0 0 0 0 0 0 0 0 0 0 0 0 0 0 0 0 0 0 0 0 0 0 0 0 0 0 0 0 0 0 0 0 0 0 0 0 0 0 0 0 0 0 0 0 0 0 0 0 0 
-14 -6 -9 -1 -79 -79 -3 -6 3 0 0 0 -26 0 0 -2 0 0 0 0 -17 -2 0 0 0 0 0 0 0 0 -82 0 0 -3 0 3 0 4 0 0 -17 0 0 0 0 -17 0 0 0 0 -6 0 2 0 0 0 0 0 0 0 -4 5 2 0 5 9 0 0 0 -8 0 -4 0 0 0 0 0 0 0 0 0 0 0 -4 0 -3 5 0 0 -23 3 0 0 -9 1 -3 0 0 0 0 0 0 -5 0 -2 0 -9 0 0 0 0 5 4 -12 -8 -5 0 -4 0 0 0 0 0 0 0 0 0 0 0 0 0 0 0 0 0 0 0 0 0 0 0 0 0 0 0 0 0 0 0 0 0 0 0 0 0 0 0 0 0 0 0 0 0 0 0 0 0 0 0 0 0 0 0 0 0 0 0 0 0 0 0 0 0 0 0 0 0 0 0 0 0 0 0 0 0 0 0 0 0 0 0 0 0 0 0 0 0 0 0 0 0 0 0 0 0 0 0 0 0 0 0 0 0 0 0 0 0 0 0 0 0 0 0 0 0 0 0 0 0 0 0 0 0 0 0 0 0 0 0 0 
-16 1 -7 2 3 3 0 0 0 0 0 0 -15 0 0 -9 1 0 0 0 -15 -1 0 0 -1 0 0 0 -8 0 3 0 0 3 0 0 0 0 0 0 0 0 0 0 0 0 0 0 0 0 0 1 0 0 0 0 0 0 0 0 0 3 0 0 3 3 0 0 0 0 0 4 0 0 0 0 0 0 0 0 0 0 -3 0 0 3 0 0 0 -4 0 -1 -3 0 0 0 0 0 0 -1 0 0 0 0 0 0 -3 0 0 0 0 3 0 -7 0 0 0 4 0 0 0 0 0 0 0 0 0 0 0 0 0 0 0 0 0 0 0 0 0 0 0 0 0 0 0 0 0 0 0 0 0 0 0 0 0 0 0 0 0 0 0 0 0 0 0 0 0 0 0 0 0 0 0 0 0 0 0 0 0 0 0 0 0 0 0 0 0 0 0 0 0 0 0 0 0 0 0 0 0 0 0 0 0 0 0 0 0 0 0 0 0 0 0 0 0 0 0 0 0 0 0 0 0 0 0 0 0 0 0 0 0 0 0 0 0 0 0 0 0 0 0 0 0 0 0 0 0 0 0 0 
-16 -6 -2 -4 -31 -31 0 -68 -5 -67 13 1 0 0 0 -14 -4 1 0 0 0 0 0 0 9 -80 -2 0 -16 0 0 0 0 0 0 -5 -3 0 0 0 0 0 0 -5 0 0 0 0 0 -3 0 -4 0 0 0 0 -3 0 0 -1 1 1 0 -5 1 0 -2 0 0 -2 -2 4 0 0 0 0 0 0 0 0 0 0 0 0 0 0 1 0 0 -4 0 -1 2 0 -2 5 0 0 0 4 3 0 0 0 0 5 0 0 2 0 0 1 0 -2 -2 -1 0 4 0 0 0 0 0 0 0 0 0 0 0 0 0 0 0 0 0 0 0 0 0 0 0 0 0 0 0 0 0 0 0 0 0 0 0 0 0 0 0 0 0 0 0 0 0 0 0 0 0 0 0 0 0 0 0 0 0 0 0 0 0 0 0 0 0 0 0 0 0 0 0 0 0 0 0 0 0 0 0 0 0 0 0 0 0 0 0 0 0 0 0 0 0 0 0 0 0 0 0 0 0 0 0 0 0 0 0 0 0 0 0 0 0 0 0 0 0 0 0 0 0 0 0 0 0 0 0 0 0 0 0 0 
-3 -6 -5 -4 -15 -15 0 -49 -15 -42 -42 0 0 0 17 2 -26 0 0 0 0 2 0 0 -16 0 -1 0 0 0 0 0 17 3 0 -15 0 0 0 0 0 0 0 0 0 0 0 0 0 0 -7 16 2 -42 0 0 0 0 0 0 0 0 2 0 0 0 0 0 0 0 0 2 0 0 0 0 0 0 0 0 0 5 0 0 0 3 0 0 0 -2 0 -1 1 0 0 15 0 0 0 -16 5 0 0 0 -2 0 0 0 0 0 -5 0 0 -5 0 0 0 2 0 0 0 0 0 0 0 0 0 0 0 0 0 0 0 0 0 0 0 0 0 0 0 0 0 0 0 0 0 0 0 0 0 0 0 0 0 0 0 0 0 0 0 0 0 0 0 0 0 0 0 0 0 0 0 0 0 0 0 0 0 0 0 0 0 0 0 0 0 0 0 0 0 0 0 0 0 0 0 0 0 0 0 0 0 0 0 0 0 0 0 0 0 0 0 0 0 0 0 0 0 0 0 0 0 0 0 0 0 0 0 0 0 0 0 0 0 0 0 0 0 0 0 0 0 0 0 0 0 0 0 0 
0 -6 0 -4 0 0 0 0 0 0 0 0 0 0 0 0 0 0 0 0 0 0 0 0 0 0 -2 0 0 0 0 0 0 -2 0 0 0 0 0 0 0 0 0 0 0 0 0 0 0 0 0 0 0 0 0 0 0 0 0 0 0 0 0 0 0 0 0 -2 0 0 0 2 0 0 0 0 0 0 0 0 0 0 0 0 0 -2 0 0 0 -2 0 0 0 0 0 0 0 0 0 0 0 0 0 0 0 0 0 2 0 0 0 0 0 0 0 0 0 2 0 0 0 0 0 0 0 0 0 0 0 0 0 0 0 0 0 0 0 0 0 0 0 0 0 0 0 0 0 0 0 0 0 0 0 0 0 0 0 0 0 0 0 0 0 0 0 0 0 0 0 0 0 0 0 0 0 0 0 0 0 0 0 0 0 0 0 0 0 0 0 0 0 0 0 0 0 0 0 0 0 0 0 0 0 0 0 0 0 0 0 0 0 0 0 0 0 0 0 0 0 0 0 0 0 0 0 0 0 0 0 0 0 0 0 0 0 0 0 0 0 0 0 0 0 0 0 0 0 0 0 0 
-16 -6 -9 -4 -79 -79 -5 -57 -4 -42 -42 -1 -30 0 25 -2 -34 -1 6 0 -26 0 0 6 -42 0 0 0 0 0 9 0 17 3 8 -4 5 3 6 0 2 0 -1 0 0 0 -1 0 0 4 -10 -34 2 0 0 0 6 0 0 -5 -4 5 2 0 5 9 2 0 0 3 2 -4 0 0 0 0 0 0 0 0 0 5 0 -3 0 3 5 0 12 4 5 -1 0 -9 6 4 1 2 0 -54 -1 0 0 0 -2 0 -9 0 -2 0 -5 5 3 -2 3 -5 -12 -4 0 0 0 0 0 0 0 0 0 0 0 0 0 0 0 0 0 0 0 0 0 0 0 0 0 0 0 0 0 0 0 0 0 0 0 0 0 0 0 0 0 0 0 0 0 0 0 0 0 0 0 0 0 0 0 0 0 0 0 0 0 0 0 0 0 0 0 0 0 0 0 0 0 0 0 0 0 0 0 0 0 0 0 0 0 0 0 0 0 0 0 0 0 0 0 0 0 0 0 0 0 0 0 0 0 0 0 0 0 0 0 0 0 0 0 0 0 0 0 0 0 0 0 0 0 0 0 0 0 0 0 0 
-4 -6 0 0 0 0 0 -2 0 0 0 0 -24 0 0 -4 0 0 6 0 -30 0 0 4 0 0 -6 0 0 0 0 0 0 0 0 0 0 0 4 0 22 0 0 0 0 0 0 0 0 0 -2 0 0 0 0 0 0 0 0 0 0 0 0 0 0 0 4 -7 0 0 4 0 -80 0 0 0 0 0 0 0 0 0 0 0 0 0 0 0 0 0 0 0 -1 0 0 0 0 0 2 0 0 0 0 0 0 0 0 7 -4 0 0 0 0 0 0 0 0 0 0 0 0 0 0 0 0 0 0 0 0 0 0 0 0 0 0 0 0 0 0 0 0 0 0 0 0 0 0 0 0 0 0 0 0 0 0 0 0 0 0 0 0 0 0 0 0 0 0 0 0 0 0 0 0 0 0 0 0 0 0 0 0 0 0 0 0 0 0 0 0 0 0 0 0 0 0 0 0 0 0 0 0 0 0 0 0 0 0 0 0 0 0 0 0 0 0 0 0 0 0 0 0 0 0 0 0 0 0 0 0 0 0 0 0 0 0 0 0 0 0 0 0 0 0 0 0 0 0 0 0 0 
0 0 0 0 -17 0 0 0 0 0 0 0 -6 0 0 0 0 0 -6 0 0 0 0 -6 0 0 0 0 0 0 0 0 0 0 0 0 0 0 -6 0 0 0 0 0 0 0 0 0 0 0 0 0 0 0 0 0 0 0 0 0 0 0 0 0 0 0 0 0 0 0 0 0 0 0 0 0 0 0 17 0 0 0 0 0 0 0 0 0 0 0 0 0 0 0 0 0 0 0 0 0 0 0 0 0 0 0 0 0 0 -17 0 0 0 0 0 0 0 0 0 0 0 0 0 0 0 0 0 0 0 0 0 0 0 0 0 0 0 0 0 0 0 0 0 0 0 0 0 0 0 0 0 0 0 0 0 0 0 0 0 0 0 0 0 0 0 0 0 0 0 0 0 0 0 0 0 0 0 0 0 0 0 0 0 0 0 0 0 0 0 0 0 0 0 0 0 0 0 0 0 0 0 0 0 0 0 0 0 0 0 0 0 0 0 0 0 0 0 0 0 0 0 0 0 0 0 0 0 0 0 0 0 0 0 0 0 0 0 0 0 0 0 0 0 0 0 0 0 0 0 0 
0 0 0 0 -32 0 0 0 0 0 0 0 -11 0 0 0 0 0 -6 0 0 0 0 -6 0 0 0 0 0 0 0 0 0 0 0 0 0 0 60 0 0 0 0 5 0 0 0 0 0 0 0 0 0 0 0 0 0 0 0 0 0 0 0 5 0 0 0 0 0 -5 0 0 0 0 0 0 0 0 32 0 0 0 0 0 0 0 0 0 5 0 0 0 0 -5 0 0 0 0 0 0 0 0 0 0 0 -5 0 0 0 -32 0 0 0 5 -5 0 -5 0 0 0 0 0 0 0 0 0 0 0 0 0 0 0 0 0 0 0 0 0 0 0 0 0 0 0 0 0 0 0 0 0 0 0 0 0 0 0 0 0 0 0 0 0 0 0 0 0 0 0 0 0 0 0 0 0 0 0 0 0 0 0 0 0 0 0 0 0 0 0 0 0 0 0 0 0 0 0 0 0 0 0 0 0 0 0 0 0 0 0 0 0 0 0 0 0 0 0 0 0 0 0 0 0 0 0 0 0 0 0 0 0 0 0 0 0 0 0 0 0 0 0 0 0 0 0 0 0 0 0 0 0 
#OUTPUT END
Model has been successfully processed
